c A SAT instance generated from a 3-CNF formula that had 22 clauses and 11 variables
p cnf 11 22
-4 -11 -8 0
-2 -5 -7 0
9 -10 6 0
-2 10 5 0
8 -5 -2 0
4 -7 5 0
9 3 -5 0
10 -6 -4 0
-10 6 9 0
8 10 3 0
9 -5 -2 0
7 1 6 0
4 -10 -1 0
2 -6 -7 0
-5 10 -3 0
7 -11 -8 0
-7 11 -3 0
-4 1 -9 0
-4 2 9 0
-4 10 -8 0
-8 11 5 0
1 -4 -2 0
